instances/knapsack/discrete_knapsack_uncertainty/knapsack_80_3.lp
\ Model knapsack_80_3
\ LP format - for model browsing. Use MPS format to capture full model detail.
\ Signature: 0xf86d0bbf74a39a5e
Minimize
  - 90 x[0] - 55 x[1] - 8 x[2] - 96 x[3] - 78 x[4] - 73 x[5] - 78 x[6]
   - 44 x[7] - 39 x[8] - 99 x[9] - 47 x[10] - 15 x[11] - 59 x[12]
   - 26 x[13] - 91 x[14] - 100 x[15] - 94 x[16] - 2 x[17] - 67 x[18]
   - 18 x[19] - 74 x[20] - 55 x[21] - 100 x[22] - 52 x[23] - 73 x[24]
   - 7 x[25] - 100 x[26] - 72 x[27] - 62 x[28] - 57 x[29] - 53 x[30]
   - 20 x[31] - 12 x[32] - 87 x[33] - 36 x[34] - 53 x[35] - 65 x[36]
   - 39 x[37] - 27 x[38] - 36 x[39] - 24 x[40] - 2 x[41] - 58 x[42]
   - 99 x[43] - 47 x[44] - 27 x[45] - 21 x[46] - 5 x[47] - 61 x[48]
   - 22 x[49] - 7 x[50] - 55 x[51] - 35 x[52] - 29 x[53] - 96 x[54]
   - 94 x[55] - 15 x[56] - 8 x[57] - 88 x[58] - 7 x[59] - 92 x[60]
   - 38 x[61] - 74 x[62] - 74 x[63] - 39 x[64] - 29 x[65] - 29 x[66]
   - 38 x[67] - 65 x[68] - 50 x[69] - 89 x[70] - 55 x[71] - 33 x[72]
   - 94 x[73] - 67 x[74] - 22 x[75] - 10 x[76] - 77 x[77] - 24 x[78]
   - 40 x[79]
Subject To
 primal_upper: 16 x[0] + 8 x[1] + 26 x[2] + 95 x[3] + 88 x[4] + 30 x[5]
   + 57 x[6] + 52 x[7] + 21 x[8] + 38 x[9] + 80 x[10] + 31 x[11] + 32 x[12]
   + 52 x[13] + 89 x[14] + 93 x[15] + 65 x[16] + 64 x[17] + 21 x[18]
   + 62 x[19] + 29 x[20] + 92 x[21] + 32 x[22] + 95 x[23] + 89 x[24]
   + 80 x[25] + 70 x[26] + 60 x[27] + 82 x[28] + 83 x[29] + 82 x[30]
   + 72 x[31] + 48 x[32] + 5 x[33] + 8 x[34] + 57 x[35] + 60 x[36]
   + 9 x[37] + 8 x[38] + 67 x[39] + 15 x[40] + 54 x[41] + 58 x[42]
   + 2 x[43] + 83 x[44] + 31 x[45] + 86 x[46] + 62 x[47] + 7 x[48]
   + 72 x[49] + 71 x[50] + 44 x[51] + 81 x[52] + 72 x[53] + 81 x[54]
   + 24 x[55] + 41 x[56] + 59 x[57] + 36 x[58] + 94 x[59] + 25 x[60]
   + 71 x[61] + 72 x[62] + 23 x[63] + 60 x[64] + 60 x[65] + 93 x[66]
   + 59 x[67] + 40 x[68] + 22 x[69] + 54 x[70] + 86 x[71] + 94 x[72]
   + 63 x[73] + 40 x[74] + 57 x[75] + 75 x[76] + 79 x[77] + 81 x[78]
   + 23 x[79] + 1.6 r[0] + 0.8 r[1] + 2.6 r[2] + 9.5 r[3] + 8.8 r[4]
   + 3 r[5] + 5.7 r[6] + 5.2 r[7] + 2.1 r[8] + 3.8 r[9] + 8 r[10]
   + 3.1 r[11] + 3.2 r[12] + 5.2 r[13] + 8.9 r[14] + 9.3 r[15] + 6.5 r[16]
   + 6.4 r[17] + 2.1 r[18] + 6.2 r[19] + 2.9 r[20] + 9.2 r[21] + 3.2 r[22]
   + 9.5 r[23] + 8.9 r[24] + 8 r[25] + 7 r[26] + 6 r[27] + 8.2 r[28]
   + 8.3 r[29] + 8.2 r[30] + 7.2 r[31] + 4.8 r[32] + 0.5 r[33] + 0.8 r[34]
   + 5.7 r[35] + 6 r[36] + 0.9 r[37] + 0.8 r[38] + 6.7 r[39] + 1.5 r[40]
   + 5.4 r[41] + 5.8 r[42] + 0.2 r[43] + 8.3 r[44] + 3.1 r[45] + 8.6 r[46]
   + 6.2 r[47] + 0.7 r[48] + 7.2 r[49] + 7.1 r[50] + 4.4 r[51] + 8.1 r[52]
   + 7.2 r[53] + 8.1 r[54] + 2.4 r[55] + 4.1 r[56] + 5.9 r[57] + 3.6 r[58]
   + 9.4 r[59] + 2.5 r[60] + 7.1 r[61] + 7.2 r[62] + 2.3 r[63] + 6 r[64]
   + 6 r[65] + 9.3 r[66] + 5.9 r[67] + 4 r[68] + 2.2 r[69] + 5.4 r[70]
   + 8.6 r[71] + 9.4 r[72] + 6.3 r[73] + 4 r[74] + 5.7 r[75] + 7.5 r[76]
   + 7.9 r[77] + 8.1 r[78] + 2.3 r[79] <= 418
 primal_lower: 1.028278909979525 x[0] + 3.673729654884919 x[1]
   + 4.102196628965594 x[2] + 1.383498652889834 x[3]
   + 2.13048862619517 x[4] + 4.308612580327785 x[5] + 3.11272639515744 x[6]
   + 0.8536157182451382 x[7] + 1.065753853888226 x[8]
   + 1.638559306839223 x[9] + 4.336563328723607 x[10]
   + 2.992932205107683 x[11] + 2.731047969016486 x[12]
   + 0.9349984576743581 x[13] + 3.649204672900898 x[14]
   + 2.904615388693652 x[15] + 1.554896349237907 x[16]
   + 1.439461622479644 x[17] + 1.132817110747623 x[18]
   + 2.471785026253791 x[19] + 4.195716232154897 x[20]
   + 4.652115914021966 x[21] + 4.287918412615862 x[22]
   + 4.095127085024737 x[23] + 1.433596007685021 x[24]
   + 4.495254532125425 x[25] + 3.050924474896534 x[26]
   + 1.524453848429911 x[27] + 0.9607010443788444 x[28]
   + 0.8516437746749614 x[29] + 1.346974039242226 x[30]
   + 0.340352796335925 x[31] + 0.4463314297079788 x[32]
   + 2.662374476834567 x[33] + 2.993952689586678 x[34]
   + 3.384133450869037 x[35] + 0.8708600946297732 x[36]
   + 4.483564222084425 x[37] + 0.3990194267049011 x[38]
   + 3.274165417693982 x[39] + 1.90864683214793 x[40]
   + 3.476471158204007 x[41] + 4.0027195091176 x[42]
   + 0.452384544978299 x[43] + 3.741317244503195 x[44]
   + 2.758186560473459 x[45] + 3.846380752117577 x[46]
   + 3.661841012000576 x[47] + 4.601781279750202 x[48]
   + 2.559548702638012 x[49] + 1.589012759935448 x[50]
   + 1.704420554651136 x[51] + 3.420080474708879 x[52]
   + 3.875188512044303 x[53] + 2.260019153313388 x[54]
   + 3.700669032015345 x[55] + 1.931758479379817 x[56]
   + 1.306677386543898 x[57] + 2.809833829366956 x[58]
   + 0.2498396361707078 x[59] + 2.299732621012843 x[60]
   + 0.1378164874360729 x[61] + 0.8143461453179111 x[62]
   + 3.880485513492196 x[63] + 1.582885874746272 x[64]
   + 2.783917883301064 x[65] + 1.222641622691695 x[66]
   + 3.533245132637449 x[67] + 2.162031095208878 x[68]
   + 4.473568895717695 x[69] + 2.644476615848008 x[70]
   + 4.011506278736502 x[71] + 4.658400530584448 x[72]
   + 1.648646817362881 x[73] + 0.110035513526653 x[74]
   + 4.374903972236637 x[75] + 2.899464511705151 x[76]
   + 0.3111035698783504 x[77] + 3.04270547047487 x[78]
   + 2.216752581981613 x[79] + 44 u[0] + 41 u[1] + 67 u[2] + 20 u[3]
   + 77 u[4] + 74 u[5] + 14 u[6] + 20 u[7] + 86 u[8] + 91 u[9] + 24 u[10]
   + 12 u[11] + 93 u[12] + 65 u[13] + 69 u[14] + 45 u[15] + 18 u[16]
   + 81 u[17] + 70 u[18] + 39 u[19] + 90 u[20] + 92 u[21] + 57 u[22]
   + 95 u[23] + 89 u[24] + 65 u[25] + 31 u[26] + 52 u[27] + 18 u[28]
   + 100 u[29] + 18 u[30] + 60 u[31] + 40 u[32] + 62 u[33] + 77 u[34]
   + 66 u[35] + 13 u[36] + 21 u[37] + 21 u[38] + 27 u[39] + 16 u[40]
   + 62 u[41] + 75 u[42] + 30 u[43] + 28 u[44] + 51 u[45] + 42 u[46]
   + 94 u[47] + 4 u[48] + 25 u[49] + 99 u[50] + 9 u[51] + 62 u[52]
   + 45 u[53] + 73 u[54] + 44 u[55] + 58 u[56] + 31 u[57] + u[58]
   + 95 u[59] + 69 u[60] + 87 u[61] + 52 u[62] + 35 u[63] + 88 u[64]
   + 45 u[65] + 37 u[66] + 3 u[67] + 77 u[68] + 30 u[69] + 2 u[70]
   + 50 u[71] + 83 u[72] + 80 u[73] + 76 u[74] + u[75] + 51 u[76]
   + 32 u[77] + 17 u[78] + 43 u[79] <= 28399
 mccormick1[0]: - u[0] + r[0] <= 0
 mccormick1[1]: - u[1] + r[1] <= 0
 mccormick1[2]: - u[2] + r[2] <= 0
 mccormick1[3]: - u[3] + r[3] <= 0
 mccormick1[4]: - u[4] + r[4] <= 0
 mccormick1[5]: - u[5] + r[5] <= 0
 mccormick1[6]: - u[6] + r[6] <= 0
 mccormick1[7]: - u[7] + r[7] <= 0
 mccormick1[8]: - u[8] + r[8] <= 0
 mccormick1[9]: - u[9] + r[9] <= 0
 mccormick1[10]: - u[10] + r[10] <= 0
 mccormick1[11]: - u[11] + r[11] <= 0
 mccormick1[12]: - u[12] + r[12] <= 0
 mccormick1[13]: - u[13] + r[13] <= 0
 mccormick1[14]: - u[14] + r[14] <= 0
 mccormick1[15]: - u[15] + r[15] <= 0
 mccormick1[16]: - u[16] + r[16] <= 0
 mccormick1[17]: - u[17] + r[17] <= 0
 mccormick1[18]: - u[18] + r[18] <= 0
 mccormick1[19]: - u[19] + r[19] <= 0
 mccormick1[20]: - u[20] + r[20] <= 0
 mccormick1[21]: - u[21] + r[21] <= 0
 mccormick1[22]: - u[22] + r[22] <= 0
 mccormick1[23]: - u[23] + r[23] <= 0
 mccormick1[24]: - u[24] + r[24] <= 0
 mccormick1[25]: - u[25] + r[25] <= 0
 mccormick1[26]: - u[26] + r[26] <= 0
 mccormick1[27]: - u[27] + r[27] <= 0
 mccormick1[28]: - u[28] + r[28] <= 0
 mccormick1[29]: - u[29] + r[29] <= 0
 mccormick1[30]: - u[30] + r[30] <= 0
 mccormick1[31]: - u[31] + r[31] <= 0
 mccormick1[32]: - u[32] + r[32] <= 0
 mccormick1[33]: - u[33] + r[33] <= 0
 mccormick1[34]: - u[34] + r[34] <= 0
 mccormick1[35]: - u[35] + r[35] <= 0
 mccormick1[36]: - u[36] + r[36] <= 0
 mccormick1[37]: - u[37] + r[37] <= 0
 mccormick1[38]: - u[38] + r[38] <= 0
 mccormick1[39]: - u[39] + r[39] <= 0
 mccormick1[40]: - u[40] + r[40] <= 0
 mccormick1[41]: - u[41] + r[41] <= 0
 mccormick1[42]: - u[42] + r[42] <= 0
 mccormick1[43]: - u[43] + r[43] <= 0
 mccormick1[44]: - u[44] + r[44] <= 0
 mccormick1[45]: - u[45] + r[45] <= 0
 mccormick1[46]: - u[46] + r[46] <= 0
 mccormick1[47]: - u[47] + r[47] <= 0
 mccormick1[48]: - u[48] + r[48] <= 0
 mccormick1[49]: - u[49] + r[49] <= 0
 mccormick1[50]: - u[50] + r[50] <= 0
 mccormick1[51]: - u[51] + r[51] <= 0
 mccormick1[52]: - u[52] + r[52] <= 0
 mccormick1[53]: - u[53] + r[53] <= 0
 mccormick1[54]: - u[54] + r[54] <= 0
 mccormick1[55]: - u[55] + r[55] <= 0
 mccormick1[56]: - u[56] + r[56] <= 0
 mccormick1[57]: - u[57] + r[57] <= 0
 mccormick1[58]: - u[58] + r[58] <= 0
 mccormick1[59]: - u[59] + r[59] <= 0
 mccormick1[60]: - u[60] + r[60] <= 0
 mccormick1[61]: - u[61] + r[61] <= 0
 mccormick1[62]: - u[62] + r[62] <= 0
 mccormick1[63]: - u[63] + r[63] <= 0
 mccormick1[64]: - u[64] + r[64] <= 0
 mccormick1[65]: - u[65] + r[65] <= 0
 mccormick1[66]: - u[66] + r[66] <= 0
 mccormick1[67]: - u[67] + r[67] <= 0
 mccormick1[68]: - u[68] + r[68] <= 0
 mccormick1[69]: - u[69] + r[69] <= 0
 mccormick1[70]: - u[70] + r[70] <= 0
 mccormick1[71]: - u[71] + r[71] <= 0
 mccormick1[72]: - u[72] + r[72] <= 0
 mccormick1[73]: - u[73] + r[73] <= 0
 mccormick1[74]: - u[74] + r[74] <= 0
 mccormick1[75]: - u[75] + r[75] <= 0
 mccormick1[76]: - u[76] + r[76] <= 0
 mccormick1[77]: - u[77] + r[77] <= 0
 mccormick1[78]: - u[78] + r[78] <= 0
 mccormick1[79]: - u[79] + r[79] <= 0
 mccormick2[0]: - x[0] + r[0] <= 0
 mccormick2[1]: - x[1] + r[1] <= 0
 mccormick2[2]: - x[2] + r[2] <= 0
 mccormick2[3]: - x[3] + r[3] <= 0
 mccormick2[4]: - x[4] + r[4] <= 0
 mccormick2[5]: - x[5] + r[5] <= 0
 mccormick2[6]: - x[6] + r[6] <= 0
 mccormick2[7]: - x[7] + r[7] <= 0
 mccormick2[8]: - x[8] + r[8] <= 0
 mccormick2[9]: - x[9] + r[9] <= 0
 mccormick2[10]: - x[10] + r[10] <= 0
 mccormick2[11]: - x[11] + r[11] <= 0
 mccormick2[12]: - x[12] + r[12] <= 0
 mccormick2[13]: - x[13] + r[13] <= 0
 mccormick2[14]: - x[14] + r[14] <= 0
 mccormick2[15]: - x[15] + r[15] <= 0
 mccormick2[16]: - x[16] + r[16] <= 0
 mccormick2[17]: - x[17] + r[17] <= 0
 mccormick2[18]: - x[18] + r[18] <= 0
 mccormick2[19]: - x[19] + r[19] <= 0
 mccormick2[20]: - x[20] + r[20] <= 0
 mccormick2[21]: - x[21] + r[21] <= 0
 mccormick2[22]: - x[22] + r[22] <= 0
 mccormick2[23]: - x[23] + r[23] <= 0
 mccormick2[24]: - x[24] + r[24] <= 0
 mccormick2[25]: - x[25] + r[25] <= 0
 mccormick2[26]: - x[26] + r[26] <= 0
 mccormick2[27]: - x[27] + r[27] <= 0
 mccormick2[28]: - x[28] + r[28] <= 0
 mccormick2[29]: - x[29] + r[29] <= 0
 mccormick2[30]: - x[30] + r[30] <= 0
 mccormick2[31]: - x[31] + r[31] <= 0
 mccormick2[32]: - x[32] + r[32] <= 0
 mccormick2[33]: - x[33] + r[33] <= 0
 mccormick2[34]: - x[34] + r[34] <= 0
 mccormick2[35]: - x[35] + r[35] <= 0
 mccormick2[36]: - x[36] + r[36] <= 0
 mccormick2[37]: - x[37] + r[37] <= 0
 mccormick2[38]: - x[38] + r[38] <= 0
 mccormick2[39]: - x[39] + r[39] <= 0
 mccormick2[40]: - x[40] + r[40] <= 0
 mccormick2[41]: - x[41] + r[41] <= 0
 mccormick2[42]: - x[42] + r[42] <= 0
 mccormick2[43]: - x[43] + r[43] <= 0
 mccormick2[44]: - x[44] + r[44] <= 0
 mccormick2[45]: - x[45] + r[45] <= 0
 mccormick2[46]: - x[46] + r[46] <= 0
 mccormick2[47]: - x[47] + r[47] <= 0
 mccormick2[48]: - x[48] + r[48] <= 0
 mccormick2[49]: - x[49] + r[49] <= 0
 mccormick2[50]: - x[50] + r[50] <= 0
 mccormick2[51]: - x[51] + r[51] <= 0
 mccormick2[52]: - x[52] + r[52] <= 0
 mccormick2[53]: - x[53] + r[53] <= 0
 mccormick2[54]: - x[54] + r[54] <= 0
 mccormick2[55]: - x[55] + r[55] <= 0
 mccormick2[56]: - x[56] + r[56] <= 0
 mccormick2[57]: - x[57] + r[57] <= 0
 mccormick2[58]: - x[58] + r[58] <= 0
 mccormick2[59]: - x[59] + r[59] <= 0
 mccormick2[60]: - x[60] + r[60] <= 0
 mccormick2[61]: - x[61] + r[61] <= 0
 mccormick2[62]: - x[62] + r[62] <= 0
 mccormick2[63]: - x[63] + r[63] <= 0
 mccormick2[64]: - x[64] + r[64] <= 0
 mccormick2[65]: - x[65] + r[65] <= 0
 mccormick2[66]: - x[66] + r[66] <= 0
 mccormick2[67]: - x[67] + r[67] <= 0
 mccormick2[68]: - x[68] + r[68] <= 0
 mccormick2[69]: - x[69] + r[69] <= 0
 mccormick2[70]: - x[70] + r[70] <= 0
 mccormick2[71]: - x[71] + r[71] <= 0
 mccormick2[72]: - x[72] + r[72] <= 0
 mccormick2[73]: - x[73] + r[73] <= 0
 mccormick2[74]: - x[74] + r[74] <= 0
 mccormick2[75]: - x[75] + r[75] <= 0
 mccormick2[76]: - x[76] + r[76] <= 0
 mccormick2[77]: - x[77] + r[77] <= 0
 mccormick2[78]: - x[78] + r[78] <= 0
 mccormick2[79]: - x[79] + r[79] <= 0
 mccormick3[0]: x[0] + u[0] - r[0] <= 1
 mccormick3[1]: x[1] + u[1] - r[1] <= 1
 mccormick3[2]: x[2] + u[2] - r[2] <= 1
 mccormick3[3]: x[3] + u[3] - r[3] <= 1
 mccormick3[4]: x[4] + u[4] - r[4] <= 1
 mccormick3[5]: x[5] + u[5] - r[5] <= 1
 mccormick3[6]: x[6] + u[6] - r[6] <= 1
 mccormick3[7]: x[7] + u[7] - r[7] <= 1
 mccormick3[8]: x[8] + u[8] - r[8] <= 1
 mccormick3[9]: x[9] + u[9] - r[9] <= 1
 mccormick3[10]: x[10] + u[10] - r[10] <= 1
 mccormick3[11]: x[11] + u[11] - r[11] <= 1
 mccormick3[12]: x[12] + u[12] - r[12] <= 1
 mccormick3[13]: x[13] + u[13] - r[13] <= 1
 mccormick3[14]: x[14] + u[14] - r[14] <= 1
 mccormick3[15]: x[15] + u[15] - r[15] <= 1
 mccormick3[16]: x[16] + u[16] - r[16] <= 1
 mccormick3[17]: x[17] + u[17] - r[17] <= 1
 mccormick3[18]: x[18] + u[18] - r[18] <= 1
 mccormick3[19]: x[19] + u[19] - r[19] <= 1
 mccormick3[20]: x[20] + u[20] - r[20] <= 1
 mccormick3[21]: x[21] + u[21] - r[21] <= 1
 mccormick3[22]: x[22] + u[22] - r[22] <= 1
 mccormick3[23]: x[23] + u[23] - r[23] <= 1
 mccormick3[24]: x[24] + u[24] - r[24] <= 1
 mccormick3[25]: x[25] + u[25] - r[25] <= 1
 mccormick3[26]: x[26] + u[26] - r[26] <= 1
 mccormick3[27]: x[27] + u[27] - r[27] <= 1
 mccormick3[28]: x[28] + u[28] - r[28] <= 1
 mccormick3[29]: x[29] + u[29] - r[29] <= 1
 mccormick3[30]: x[30] + u[30] - r[30] <= 1
 mccormick3[31]: x[31] + u[31] - r[31] <= 1
 mccormick3[32]: x[32] + u[32] - r[32] <= 1
 mccormick3[33]: x[33] + u[33] - r[33] <= 1
 mccormick3[34]: x[34] + u[34] - r[34] <= 1
 mccormick3[35]: x[35] + u[35] - r[35] <= 1
 mccormick3[36]: x[36] + u[36] - r[36] <= 1
 mccormick3[37]: x[37] + u[37] - r[37] <= 1
 mccormick3[38]: x[38] + u[38] - r[38] <= 1
 mccormick3[39]: x[39] + u[39] - r[39] <= 1
 mccormick3[40]: x[40] + u[40] - r[40] <= 1
 mccormick3[41]: x[41] + u[41] - r[41] <= 1
 mccormick3[42]: x[42] + u[42] - r[42] <= 1
 mccormick3[43]: x[43] + u[43] - r[43] <= 1
 mccormick3[44]: x[44] + u[44] - r[44] <= 1
 mccormick3[45]: x[45] + u[45] - r[45] <= 1
 mccormick3[46]: x[46] + u[46] - r[46] <= 1
 mccormick3[47]: x[47] + u[47] - r[47] <= 1
 mccormick3[48]: x[48] + u[48] - r[48] <= 1
 mccormick3[49]: x[49] + u[49] - r[49] <= 1
 mccormick3[50]: x[50] + u[50] - r[50] <= 1
 mccormick3[51]: x[51] + u[51] - r[51] <= 1
 mccormick3[52]: x[52] + u[52] - r[52] <= 1
 mccormick3[53]: x[53] + u[53] - r[53] <= 1
 mccormick3[54]: x[54] + u[54] - r[54] <= 1
 mccormick3[55]: x[55] + u[55] - r[55] <= 1
 mccormick3[56]: x[56] + u[56] - r[56] <= 1
 mccormick3[57]: x[57] + u[57] - r[57] <= 1
 mccormick3[58]: x[58] + u[58] - r[58] <= 1
 mccormick3[59]: x[59] + u[59] - r[59] <= 1
 mccormick3[60]: x[60] + u[60] - r[60] <= 1
 mccormick3[61]: x[61] + u[61] - r[61] <= 1
 mccormick3[62]: x[62] + u[62] - r[62] <= 1
 mccormick3[63]: x[63] + u[63] - r[63] <= 1
 mccormick3[64]: x[64] + u[64] - r[64] <= 1
 mccormick3[65]: x[65] + u[65] - r[65] <= 1
 mccormick3[66]: x[66] + u[66] - r[66] <= 1
 mccormick3[67]: x[67] + u[67] - r[67] <= 1
 mccormick3[68]: x[68] + u[68] - r[68] <= 1
 mccormick3[69]: x[69] + u[69] - r[69] <= 1
 mccormick3[70]: x[70] + u[70] - r[70] <= 1
 mccormick3[71]: x[71] + u[71] - r[71] <= 1
 mccormick3[72]: x[72] + u[72] - r[72] <= 1
 mccormick3[73]: x[73] + u[73] - r[73] <= 1
 mccormick3[74]: x[74] + u[74] - r[74] <= 1
 mccormick3[75]: x[75] + u[75] - r[75] <= 1
 mccormick3[76]: x[76] + u[76] - r[76] <= 1
 mccormick3[77]: x[77] + u[77] - r[77] <= 1
 mccormick3[78]: x[78] + u[78] - r[78] <= 1
 mccormick3[79]: x[79] + u[79] - r[79] <= 1
Bounds
Binaries
 x[0] x[1] x[2] x[3] x[4] x[5] x[6] x[7] x[8] x[9] x[10] x[11] x[12] x[13]
 x[14] x[15] x[16] x[17] x[18] x[19] x[20] x[21] x[22] x[23] x[24] x[25]
 x[26] x[27] x[28] x[29] x[30] x[31] x[32] x[33] x[34] x[35] x[36] x[37]
 x[38] x[39] x[40] x[41] x[42] x[43] x[44] x[45] x[46] x[47] x[48] x[49]
 x[50] x[51] x[52] x[53] x[54] x[55] x[56] x[57] x[58] x[59] x[60] x[61]
 x[62] x[63] x[64] x[65] x[66] x[67] x[68] x[69] x[70] x[71] x[72] x[73]
 x[74] x[75] x[76] x[77] x[78] x[79] u[0] u[1] u[2] u[3] u[4] u[5] u[6]
 u[7] u[8] u[9] u[10] u[11] u[12] u[13] u[14] u[15] u[16] u[17] u[18] u[19]
 u[20] u[21] u[22] u[23] u[24] u[25] u[26] u[27] u[28] u[29] u[30] u[31]
 u[32] u[33] u[34] u[35] u[36] u[37] u[38] u[39] u[40] u[41] u[42] u[43]
 u[44] u[45] u[46] u[47] u[48] u[49] u[50] u[51] u[52] u[53] u[54] u[55]
 u[56] u[57] u[58] u[59] u[60] u[61] u[62] u[63] u[64] u[65] u[66] u[67]
 u[68] u[69] u[70] u[71] u[72] u[73] u[74] u[75] u[76] u[77] u[78] u[79]
 r[0] r[1] r[2] r[3] r[4] r[5] r[6] r[7] r[8] r[9] r[10] r[11] r[12] r[13]
 r[14] r[15] r[16] r[17] r[18] r[19] r[20] r[21] r[22] r[23] r[24] r[25]
 r[26] r[27] r[28] r[29] r[30] r[31] r[32] r[33] r[34] r[35] r[36] r[37]
 r[38] r[39] r[40] r[41] r[42] r[43] r[44] r[45] r[46] r[47] r[48] r[49]
 r[50] r[51] r[52] r[53] r[54] r[55] r[56] r[57] r[58] r[59] r[60] r[61]
 r[62] r[63] r[64] r[65] r[66] r[67] r[68] r[69] r[70] r[71] r[72] r[73]
 r[74] r[75] r[76] r[77] r[78] r[79]
End
