instances/knapsack/discrete_knapsack_uncertainty/knapsack_80_3.kp
49738
80
418

16 1.6 90
8 0.8 55
26 2.6 8
95 9.5 96
88 8.8 78
30 3.0 73
57 5.7 78
52 5.2 44
21 2.1 39
38 3.8 99
80 8.0 47
31 3.1 15
32 3.2 59
52 5.2 26
89 8.9 91
93 9.3 100
65 6.5 94
64 6.4 2
21 2.1 67
62 6.2 18
29 2.9 74
92 9.2 55
32 3.2 100
95 9.5 52
89 8.9 73
80 8.0 7
70 7.0 100
60 6.0 72
82 8.2 62
83 8.3 57
82 8.2 53
72 7.2 20
48 4.8 12
5 0.5 87
8 0.8 36
57 5.7 53
60 6.0 65
9 0.9 39
8 0.8 27
67 6.7 36
15 1.5 24
54 5.4 2
58 5.8 58
2 0.2 99
83 8.3 47
31 3.1 27
86 8.6 21
62 6.2 5
7 0.7 61
72 7.2 22
71 7.1 7
44 4.4 55
81 8.1 35
72 7.2 29
81 8.1 96
24 2.4 94
41 4.1 15
59 5.9 8
36 3.6 88
94 9.4 7
25 2.5 92
71 7.1 38
72 7.2 74
23 2.3 74
60 6.0 39
60 6.0 29
93 9.3 29
59 5.9 38
40 4.0 65
22 2.2 50
54 5.4 89
86 8.6 55
94 9.4 33
63 6.3 94
40 4.0 67
57 5.7 22
75 7.5 10
79 7.9 77
81 8.1 24
23 2.3 40

28399
385

[1.0282789099795246 3.6737296548849194 4.102196628965594 1.3834986528898339 2.1304886261951697 4.308612580327785 3.1127263951574395 0.8536157182451382 1.065753853888226 1.638559306839223 4.336563328723607 2.992932205107683 2.7310479690164864 0.9349984576743581 3.649204672900898 2.904615388693652 1.5548963492379069 1.439461622479644 1.132817110747623 2.4717850262537913 4.195716232154897 4.652115914021966 4.287918412615862 4.095127085024737 1.433596007685021 4.495254532125425 3.0509244748965343 1.5244538484299115 0.9607010443788444 0.8516437746749614 1.3469740392422263 0.340352796335925 0.4463314297079788 2.662374476834567 2.9939526895866777 3.3841334508690375 0.8708600946297732 4.483564222084425 0.3990194267049011 3.2741654176939816 1.9086468321479302 3.4764711582040073 4.0027195091176 0.452384544978299 3.7413172445031946 2.7581865604734586 3.846380752117577 3.6618410120005755 4.601781279750202 2.5595487026380117 1.589012759935448 1.7044205546511362 3.420080474708879 3.8751885120443035 2.260019153313388 3.7006690320153455 1.931758479379817 1.3066773865438976 2.809833829366956 0.24983963617070776 2.2997326210128435 0.13781648743607294 0.814346145317911 3.8804855134921956 1.5828858747462717 2.783917883301064 1.222641622691695 3.5332451326374494 2.1620310952088784 4.473568895717695 2.644476615848008 4.011506278736502 4.658400530584448 1.6486468173628812 0.11003551352665303 4.374903972236637 2.8994645117051507 0.3111035698783504 3.0427054704748704 2.216752581981613]

[44 41 67 20 77 74 14 20 86 91 24 12 93 65 69 45 18 81 70 39 90 92 57 95 89 65 31 52 18 100 18 60 40 62 77 66 13 21 21 27 16 62 75 30 28 51 42 94 4 25 99 9 62 45 73 44 58 31 1 95 69 87 52 35 88 45 37 3 77 30 2 50 83 80 76 1 51 32 17 43]
